(set-info :smt-lib-version 2.6)
(set-logic QF_UFLRA)
(set-info :source |
MathSat group

|)
(set-info :category "random")
(set-info :status sat)
(declare-fun x0 () Real)
(declare-fun x1 () Real)
(declare-fun x2 () Real)
(declare-fun x3 () Real)
(declare-fun x4 () Real)
(declare-fun x5 () Real)
(declare-fun x6 () Real)
(declare-fun x7 () Real)
(declare-fun x8 () Real)
(declare-fun x9 () Real)
(declare-fun x10 () Real)
(declare-fun x11 () Real)
(declare-fun x12 () Real)
(declare-fun x13 () Real)
(declare-fun x14 () Real)
(declare-fun x15 () Real)
(declare-fun x16 () Real)
(declare-fun x17 () Real)
(declare-fun x18 () Real)
(declare-fun x19 () Real)
(declare-fun x20 () Real)
(declare-fun x21 () Real)
(declare-fun x22 () Real)
(declare-fun x23 () Real)
(declare-fun x24 () Real)
(declare-fun x25 () Real)
(declare-fun x26 () Real)
(declare-fun x27 () Real)
(declare-fun x28 () Real)
(declare-fun x29 () Real)
(declare-fun x30 () Real)
(declare-fun x31 () Real)
(declare-fun x32 () Real)
(declare-fun x33 () Real)
(declare-fun x34 () Real)
(declare-fun x35 () Real)
(declare-fun x36 () Real)
(declare-fun x37 () Real)
(declare-fun x38 () Real)
(declare-fun x39 () Real)
(declare-fun f0_1 (Real) Real)
(declare-fun f0_2 (Real Real) Real)
(declare-fun f0_3 (Real Real Real) Real)
(declare-fun f0_4 (Real Real Real Real) Real)
(declare-fun P0 () Bool)
(declare-fun P1 () Bool)
(declare-fun P2 () Bool)
(declare-fun P3 () Bool)
(declare-fun P4 () Bool)
(declare-fun P5 () Bool)
(declare-fun P6 () Bool)
(declare-fun P7 () Bool)
(declare-fun P8 () Bool)
(declare-fun P9 () Bool)
(declare-fun P10 () Bool)
(declare-fun P11 () Bool)
(declare-fun P12 () Bool)
(declare-fun P13 () Bool)
(declare-fun P14 () Bool)
(declare-fun P15 () Bool)
(declare-fun P16 () Bool)
(declare-fun P17 () Bool)
(declare-fun P18 () Bool)
(declare-fun P19 () Bool)
(declare-fun P20 () Bool)
(declare-fun P21 () Bool)
(declare-fun P22 () Bool)
(declare-fun P23 () Bool)
(declare-fun P24 () Bool)
(declare-fun P25 () Bool)
(declare-fun P26 () Bool)
(declare-fun P27 () Bool)
(declare-fun P28 () Bool)
(declare-fun P29 () Bool)
(declare-fun P30 () Bool)
(declare-fun P31 () Bool)
(declare-fun P32 () Bool)
(declare-fun P33 () Bool)
(declare-fun P34 () Bool)
(declare-fun P35 () Bool)
(declare-fun P36 () Bool)
(declare-fun P37 () Bool)
(declare-fun P38 () Bool)
(declare-fun P39 () Bool)
(assert (let ((?v_113 (< (- (+ (* 3 x5) (* 43 x18)) (* 51 x14)) 48)) (?v_3 (* 11 x38)) (?v_168 (< (- (+ (* 38 x35) (* 40 x7)) (* 48 x31)) 20)) (?v_1 (* 24 x3)) (?v_82 (< (+ (- (* 44 x19) (* 36 x24)) (* 51 x11)) 30))) (let ((?v_4 (<= (- (+ ?v_1 (* 13 x16)) (* 4 x16)) 35)) (?v_92 (* 40 x15)) (?v_26 (< (- (- (* 13 x34) (* 8 x38)) (* 39 x19)) 41))) (let ((?v_148 (distinct (- (- (* 16 x2) (* 21 x1)) ?v_92) 28)) (?v_72 (distinct x29 x9)) (?v_93 (= x10 (f0_2 x17 x2))) (?v_133 (= x15 x15)) (?v_18 (= (f0_2 x20 x14) (f0_1 x20))) (?v_185 (distinct (f0_2 x35 x21) (f0_1 x24))) (?v_40 (distinct (f0_2 x29 x38) (f0_2 x12 x31))) (?v_89 (distinct (f0_1 x39) (f0_2 x2 x39))) (?v_145 (distinct (f0_2 x10 x27) x22)) (?v_23 (f0_1 x14)) (?v_24 (f0_1 x29))) (let ((?v_130 (distinct ?v_23 ?v_24)) (?v_56 (f0_1 x17))) (let ((?v_25 (= x27 ?v_56)) (?v_35 (= (f0_2 x23 x21) x1)) (?v_192 (distinct (f0_1 x7) x13)) (?v_6 (= x13 (f0_2 x22 x1))) (?v_32 (f0_1 x12))) (let ((?v_157 (= ?v_32 x35)) (?v_180 (distinct x29 x2)) (?v_52 (= (f0_2 x18 x19) (f0_2 x32 x36))) (?v_91 (distinct ?v_56 (f0_1 x38))) (?v_190 (= (f0_2 x30 x3) (f0_2 x7 x10))) (?v_71 (distinct ?v_23 x5)) (?v_49 (distinct (f0_1 x33) x16)) (?v_2 (f0_1 x9))) (let ((?v_14 (distinct ?v_2 ?v_2)) (?v_8 (= (f0_2 x10 x37) (f0_1 x8))) (?v_97 (distinct (f0_1 x3) (f0_2 x12 x24))) (?v_17 (distinct (f0_1 x4) x19)) (?v_22 (= x34 x24)) (?v_19 (= (f0_1 x28) (f0_1 x30))) (?v_5 (= ?v_24 (f0_2 x11 x18))) (?v_84 (distinct x35 (f0_2 x33 x1))) (?v_110 (distinct (f0_2 x16 x27) ?v_32)) (?v_59 (= (f0_2 x23 x39) (f0_2 x24 x13))) (?v_38 (distinct (f0_2 x27 x30) (f0_2 x34 x38))) (?v_108 (f0_1 x18))) (let ((?v_164 (= ?v_108 x2)) (?v_138 (= (f0_1 x10) (f0_2 x2 x32))) (?v_70 (= (f0_2 x21 x27) ?v_32)) (?v_179 (distinct (f0_2 x25 x9) (f0_1 x11))) (?v_30 (= (f0_2 x27 x9) x39)) (?v_103 (= (f0_2 x21 x21) x2)) (?v_116 (distinct x32 ?v_108)) (?v_95 (= (f0_1 x2) ?v_32)) (?v_62 (not P21)) (?v_80 (not P4))) (let ((?v_104 (not ?v_103)) (?v_112 (not P16)) (?v_37 (not P9)) (?v_151 (not P25)) (?v_50 (not P1)) (?v_201 (not ?v_164)) (?v_115 (not ?v_93)) (?v_16 (not P24)) (?v_107 (not P20)) (?v_27 (not ?v_18)) (?v_47 (not ?v_4)) (?v_129 (not ?v_5)) (?v_11 (not ?v_52)) (?v_36 (not P28)) (?v_15 (not ?v_6)) (?v_9 (not ?v_8)) (?v_55 (not ?v_192)) (?v_153 (not P38)) (?v_31 (not ?v_95)) (?v_131 (not P34)) (?v_134 (not P7)) (?v_73 (not P27)) (?v_143 (not ?v_17)) (?v_172 (not ?v_19)) (?v_111 (not P23)) (?v_117 (not ?v_22)) (?v_34 (not ?v_180)) (?v_29 (not ?v_130)) (?v_43 (not ?v_145)) (?v_147 (not P22)) (?v_176 (not ?v_25)) (?v_154 (not ?v_26)) (?v_61 (not ?v_35)) (?v_189 (not P5)) (?v_76 (not P33)) (?v_124 (not P15)) (?v_63 (not ?v_168)) (?v_74 (not ?v_97)) (?v_183 (not P17)) (?v_81 (not ?v_40)) (?v_77 (not P18)) (?v_64 (not ?v_59)) (?v_100 (not P37)) (?v_159 (not ?v_84)) (?v_87 (not ?v_30)) (?v_125 (not P12)) (?v_60 (not P2)) (?v_66 (not ?v_91)) (?v_198 (not ?v_38)) (?v_167 (not P3)) (?v_137 (not ?v_185)) (?v_160 (not P11)) (?v_78 (not P32)) (?v_83 (not ?v_14)) (?v_94 (not ?v_82)) (?v_144 (not ?v_89)) (?v_135 (not ?v_72)) (?v_106 (not P31)) (?v_188 (not ?v_110)) (?v_195 (not ?v_113)) (?v_181 (not P10)) (?v_139 (not ?v_116)) (?v_136 (not P29)) (?v_141 (not ?v_190)) (?v_174 (not P39)) (?v_132 (not (distinct (f0_1 x27) x22))) (?v_146 (not ?v_49)) (?v_173 (not ?v_157)) (?v_175 (not P14)) (?v_152 (not P19)) (?v_162 (not ?v_133)) (?v_182 (not P26)) (?v_161 (not P30)) (?v_187 (not P8)) (?v_206 (not P13)) (?v_194 (not ?v_138)) (?v_178 (not P35)) (?v_191 (not P6)) (?v_197 (not P36)) (?v_196 (not ?v_148)) (?v_205 (not ?v_70))) (let ((?v_203 (or ?v_131 ?v_111)) (?v_200 (not ?v_179)) (?v_28 (= (+ (* 37 x2) (* 28 x12) (* 53 x35)) 5))) (let ((?v_67 (not ?v_28)) (?v_44 (<= (- (+ (* 2 x35) (* 7 x1)) 0) 40))) (let ((?v_155 (not ?v_44)) (?v_12 (<= (- (+ (* (- 14) x30) (* 8 x6)) (* 31 x5)) (- 23))) (?v_0 (distinct (- (- (* (- 30) x29) (* 35 x6)) (* 5 x3)) (- 50)))) (let ((?v_171 (not ?v_0)) (?v_33 (< (- (- (* (- 30) x6) (* 17 x36)) ?v_3) 31))) (let ((?v_20 (not ?v_33)) (?v_140 (<= (+ (* (- 43) x33) (* 37 x23) ?v_1) (- 8)))) (let ((?v_13 (not ?v_140)) (?v_170 (< (- (- (* (- 30) x27) (* 18 x25)) (* 57 x14)) (- 51))) (?v_69 (< (+ (- (* 27 x17) (* 18 x31)) (* 34 x31)) (- 8))) (?v_46 (<= (- (+ (* (- 36) x19) (* 11 x12)) (* 51 x16)) (- 16)))) (let ((?v_98 (not ?v_46)) (?v_127 (<= (- (- (* (- 49) x22) ?v_92) (* 24 x31)) 22))) (let ((?v_158 (not ?v_127)) (?v_39 (<= (+ (- (* (- 3) x17) (* 25 x27)) (* 49 x6)) (- 48))) (?v_7 (distinct (+ (- (* 24 x18) (* 19 x24)) (* 36 x21)) (- 23))) (?v_45 (= (+ (- (* 51 x32) (* 46 x21)) ?v_3) (- 7))) (?v_10 (< (+ (* (- 37) x4) (* 18 x18) (* 15 x38)) 32))) (let ((?v_41 (not ?v_10)) (?v_21 (< (- (+ (* (- 44) x34) (* 10 x31)) (* 21 x13)) (- 15))) (?v_51 (= (- (+ (* (- 51) x7) (* 36 x33)) (* 15 x2)) 3)) (?v_142 (= (+ (- (* 18 x28) (* 12 x12)) (* 24 x33)) (- 29))) (?v_99 (not ?v_12)) (?v_54 (< (+ (- 0 (* 47 x27)) (* 18 x26)) (- 10)))) (let ((?v_123 (not ?v_54)) (?v_86 (< (+ (* (- 1) x16) (* 23 x35) (* 8 x33)) 9)) (?v_75 (distinct (+ (* 9 x10) (* 16 x29) (* 56 x31)) (- 16))) (?v_53 (= (+ (* (- 53) x16) (* 18 x23) (* 20 x12)) 49)) (?v_48 (<= (- (- (* (- 19) x5) (* 14 x32)) (* 50 x3)) 56)) (?v_65 (= (- (+ (* (- 38) x29) (* 31 x6)) (* 5 x29)) (- 58))) (?v_126 (< (+ (* 46 x27) (* 7 x37) (* 6 x11)) (- 19)))) (let ((?v_199 (not ?v_126)) (?v_42 (not ?v_39)) (?v_85 (= (+ (- (* (- 9) x26) 0) (* 39 x30)) 58)) (?v_57 (< (- (- (* (- 41) x33) (* 14 x15)) (* 34 x10)) (- 30)))) (let ((?v_96 (not ?v_57)) (?v_102 (<= (+ (- (* 44 x14) (* 23 x33)) (* 49 x25)) (- 35))) (?v_90 (not ?v_45)) (?v_122 (= (- (- (* (- 48) x11) (* 21 x16)) (* 16 x31)) 17)) (?v_121 (not ?v_51)) (?v_58 (<= (- (+ (* 39 x11) (* 14 x37)) (* 11 x27)) (- 49)))) (let ((?v_156 (not ?v_58)) (?v_79 (not ?v_21)) (?v_105 (<= (- (- (* (- 22) x36) (* 57 x30)) (* 46 x5)) 18))) (let ((?v_163 (not ?v_105)) (?v_68 (< (- (- (* 45 x16) (* 48 x29)) (* 42 x9)) (- 49)))) (let ((?v_193 (not ?v_68)) (?v_120 (not ?v_65)) (?v_114 (not ?v_69)) (?v_88 (not ?v_75)) (?v_101 (< (- (+ (* (- 52) x36) (* 54 x12)) (* 57 x12)) 29)) (?v_119 (not ?v_48)) (?v_109 (not ?v_85))) (let ((?v_165 (not ?v_101)) (?v_128 (not ?v_102)) (?v_166 (not ?v_7)) (?v_118 (not ?v_53)) (?v_149 (not ?v_122)) (?v_204 (not ?v_142)) (?v_150 (< (- (- (* 47 x34) (* 14 x2)) (* 6 x33)) (- 24))) (?v_169 (<= (+ (- (* (- 25) x4) (* 48 x20)) (* 33 x24)) 6))) (let ((?v_177 (not ?v_169)) (?v_184 (not ?v_86)) (?v_186 (not ?v_170)) (?v_202 (not ?v_150))) (and (and (and (and (and (and (and (and (and (and (and (and (and (and (and (and (and (and (and (and (and (and (and (and (and (and (and (and (and (and (and (and (and (and (and (and (and (and (and (and (and (and (and (and (and (and (and (and (and (and (and (and (and (and (and (and (and (and (and (and (and (and (and (and (and (and (and (and (and (and (and (and (and (and (and (and (and (and (and (and (and (and (and (and (and (and (and (and (and (and (and (and (and (and (and (and (and (and (and (and (and (and (and (and (and (and (and (and (and (and (and (and (and (and (and (and (and (and (and (and (and (and (and (and (and (and (and (and (and (and (and (and (and (and (and (and (and (and (and (and (and (and (and (and (and (and (and (and (and (and (and (and (and (and (and (and (and (and (and (and (and (and (and (and (and (and (and (and (and (and (and (and (and (and (and (and (and (and (and (and (and (and (and (and (and (and (and (and (and (and (and (and (and (and (and (and (and (and (and (and (and (and (and (and (and (and (and (and (and (and (and (and (and (and (and (and (and (and (and (and (and (and (and (and (and (and (and (and (and (and (and (and (and (and (and (and (and (and (and (and (and (and (and (and (and (and (and (and (and (and (and (and (and (and (and (and (and (and (and (and (and (and (and (and (and (and (and (and (and (and (and (and (and (and (and (and (and (and (and (and (and (and (and (and (and (and (and (and (and (and (and (and (and (and (and (and (and (and (and (and (and (and (and (and (and (and (and (and (and (and (and (and (and (and (and (and (and (and (and (and (and (and (and (and (and (and (and (and (and (and (and (and (and (and (and (and (and (and (and (and (and (and (and (and (and (and (and (and (and (and (and (and (and (and (and (and (and (and (and (and (and (and (and (and (and (and (and (and (and (and (and (and (and (and (and (and (and (and (and (and (and (and (and (and (and (and (and (and (and (and (and (and (and (and (and (and (and (and (and (and (and (and (and (and (and (and (and (and (and (and (and (and (and (and (and (and (and (and (and (and (and (and (and (and (and (and (and (and (and (and (and (and (and (and (and (and (and (and (and (and (and (and (and (and (and (and (and (and (and (and (and (and (and (and (and (and (and (and (and (and (and (and (and (and (and (and (and (and (and (and (and (and (and (and (and (and (and (and (and (or (or ?v_12 ?v_0) P28) (or (or P21 ?v_62) ?v_80)) (or (or ?v_133 ?v_171) ?v_6)) (or (or ?v_20 ?v_13) ?v_104)) (or (or P14 ?v_170) ?v_112)) (or (or ?v_37 ?v_151) ?v_50)) (or (or ?v_69 ?v_19) ?v_98)) (or (or ?v_4 P10) ?v_201)) (or (or ?v_158 ?v_0) ?v_39)) (or (or ?v_7 ?v_14) ?v_115)) (or (or ?v_45 ?v_16) ?v_5)) (or (or ?v_107 ?v_27) P35)) (or (or ?v_30 ?v_47) P6)) (or (or ?v_38 ?v_129) ?v_11)) (or (or ?v_36 ?v_8) P33)) (or (or ?v_41 ?v_15) P14)) (or (or ?v_71 ?v_7) ?v_9)) (or (or ?v_21 ?v_51) ?v_9)) (or (or ?v_55 ?v_25) P38)) (or (or ?v_113 ?v_142) ?v_153)) (or (or ?v_10 ?v_11) P6)) (or (or ?v_0 ?v_31) ?v_72)) (or (or P26 ?v_99) ?v_13)) (or (or ?v_131 ?v_134) ?v_14)) (or (or ?v_67 ?v_123) ?v_86)) (or (or ?v_75 ?v_73) ?v_15)) (or (or ?v_17 ?v_44) ?v_16)) (or (or ?v_143 P27) P34)) (or (or ?v_53 ?v_18) ?v_172)) (or (or ?v_20 ?v_111) ?v_22)) (or (or ?v_82 P22) ?v_21)) (or (or ?v_117 ?v_35) P35)) (or (or ?v_34 ?v_6) P1)) (or (or ?v_29 ?v_43) P13)) (or (or ?v_26 P23) ?v_147)) (or (or ?v_176 P29) ?v_154)) (or (or ?v_27 P23) ?v_28)) (or (or ?v_48 ?v_65) ?v_29)) (or (or ?v_30 ?v_31) P5)) (or (or ?v_110 ?v_20) ?v_5)) (or (or P32 ?v_33) P0)) (or (or ?v_34 ?v_13) ?v_199)) (or (or P24 ?v_61) ?v_36)) (or (or ?v_37 ?v_15) ?v_38)) (or (or ?v_189 ?v_76) P36)) (or (or P37 ?v_42) ?v_124)) (or (or ?v_63 ?v_85) ?v_21)) (or (or ?v_8 ?v_40) ?v_74)) (or (or ?v_96 ?v_4) ?v_183)) (or (or ?v_81 ?v_77) ?v_41)) (or (or ?v_42 P38) ?v_36)) (or (or ?v_43 ?v_64) ?v_102)) (or (or ?v_155 ?v_90) ?v_9)) (or (or ?v_100 ?v_46) ?v_5)) (or (or ?v_49 ?v_8) ?v_122)) (or (or ?v_47 ?v_159) ?v_48)) (or (or P13 ?v_40) ?v_49)) (or (or ?v_50 ?v_121) ?v_52)) (or (or ?v_87 P23) ?v_53)) (or (or ?v_125 ?v_54) ?v_34)) (or (or P20 ?v_55) ?v_156)) (or (or ?v_60 ?v_66) P22)) (or (or ?v_57 ?v_79) ?v_58)) (or (or ?v_59 ?v_198) ?v_60)) (or (or ?v_61 ?v_62) P35)) (or (or ?v_63 ?v_163) P25)) (or (or ?v_64 ?v_193) ?v_15)) (or (or ?v_48 ?v_0) ?v_70)) (or (or ?v_0 ?v_120) ?v_6)) (or (or ?v_66 ?v_67) P6)) (or (or P8 ?v_68) ?v_114)) (or (or ?v_70 ?v_71) ?v_72)) (or (or ?v_39 ?v_73) ?v_167)) (or (or ?v_39 ?v_28) ?v_0)) (or (or ?v_137 P9) ?v_74)) (or (or ?v_88 ?v_21) ?v_76)) (or (or ?v_54 ?v_46) ?v_77)) (or (or ?v_89 ?v_160) ?v_77)) (or (or ?v_70 ?v_78) ?v_15)) (or (or P26 ?v_78) ?v_79)) (or (or ?v_80 ?v_17) ?v_83)) (or (or ?v_81 ?v_67) ?v_94)) (or (or ?v_33 P29) ?v_83)) (or (or ?v_84 ?v_85) ?v_86)) (or (or ?v_87 P29) ?v_88)) (or (or ?v_144 ?v_90) ?v_65)) (or (or ?v_91 ?v_148) ?v_54)) (or (or ?v_89 P15) ?v_66)) (or (or ?v_135 P4) ?v_93)) (or (or ?v_101 ?v_94) ?v_17)) (or (or ?v_95 ?v_96) ?v_119)) (or (or P2 ?v_91) ?v_97)) (or (or ?v_98 ?v_99) ?v_5)) (or (or ?v_77 ?v_64) ?v_100)) (or (or ?v_45 P11) P3)) (or (or ?v_109 P38) P13)) (or (or ?v_165 ?v_128) ?v_103)) (or (or P8 ?v_166) ?v_106)) (or (or ?v_40 P23) ?v_8)) (or (or ?v_46 P30) ?v_104)) (or (or ?v_105 P37) ?v_106)) (or (or ?v_107 ?v_116) ?v_109)) (or (or ?v_188 P17) ?v_111)) (or (or ?v_42 ?v_50) P24)) (or (or ?v_112 ?v_118) ?v_195)) (or (or ?v_114 ?v_115) ?v_181)) (or (or ?v_139 ?v_21) P12)) (or (or ?v_58 ?v_136) ?v_117)) (or (or ?v_17 ?v_115) ?v_116)) (or (or ?v_113 ?v_118) ?v_119)) (or (or P35 P3) P11)) (or (or ?v_27 ?v_82) P5)) (or (or P24 ?v_141) ?v_120)) (or (or ?v_60 ?v_174) ?v_121)) (or (or ?v_26 ?v_46) ?v_16)) (or (or P5 ?v_132) ?v_122)) (or (or P29 ?v_72) ?v_123)) (or (or ?v_138 ?v_103) P37)) (or (or ?v_107 ?v_89) ?v_119)) (or (or ?v_124 ?v_125) ?v_43)) (or (or ?v_126 ?v_113) ?v_4)) (or (or ?v_146 P6) ?v_21)) (or (or ?v_127 ?v_8) ?v_124)) (or (or ?v_173 P25) ?v_175)) (or (or ?v_152 ?v_19) ?v_26)) (or (or P0 ?v_121) ?v_128)) (or (or P26 ?v_119) P11)) (or (or ?v_63 ?v_65) ?v_76)) (or (or ?v_129 ?v_57) ?v_130)) (or (or P17 ?v_97) ?v_131)) (or (or ?v_132 ?v_162) P21)) (or (or ?v_134 ?v_135) P25)) (or (or ?v_136 ?v_84) ?v_4)) (or (or ?v_137 ?v_138) ?v_34)) (or (or P17 ?v_139) ?v_15)) (or (or ?v_182 ?v_4) ?v_104)) (or (or ?v_161 ?v_140) ?v_11)) (or (or P16 ?v_179) P4)) (or (or ?v_116 P10) ?v_141)) (or (or P18 ?v_149) ?v_29)) (or (or ?v_98 ?v_21) ?v_49)) (or (or ?v_8 ?v_131) ?v_82)) (or (or ?v_116 ?v_127) ?v_204)) (or (or ?v_126 ?v_70) ?v_143)) (or (or ?v_129 P8) ?v_137)) (or (or ?v_21 P14) P21)) (or (or ?v_144 ?v_145) ?v_146)) (or (or ?v_30 ?v_147) ?v_58)) (or (or ?v_36 ?v_150) ?v_70)) (or (or ?v_137 ?v_58) ?v_47)) (or (or ?v_139 ?v_115) ?v_148)) (or (or ?v_98 ?v_31) ?v_43)) (or (or ?v_124 ?v_74) ?v_13)) (or (or ?v_121 ?v_149) ?v_144)) (or (or ?v_129 ?v_110) ?v_74)) (or (or P38 ?v_71) P15)) (or (or ?v_47 ?v_93) ?v_52)) (or (or ?v_187 ?v_150) ?v_151)) (or (or ?v_99 P34) ?v_13)) (or (or ?v_122 ?v_27) ?v_12)) (or (or ?v_152 ?v_153) ?v_151)) (or (or P13 ?v_10) ?v_102)) (or (or ?v_116 ?v_98) ?v_154)) (or (or ?v_5 P20) P29)) (or (or ?v_74 ?v_10) ?v_155)) (or (or ?v_41 P27) P31)) (or (or ?v_34 ?v_65) ?v_78)) (or (or ?v_37 ?v_45) ?v_76)) (or (or P16 ?v_121) P24)) (or (or ?v_125 ?v_11) ?v_55)) (or (or ?v_101 ?v_156) ?v_121)) (or (or P18 ?v_25) ?v_40)) (or (or ?v_22 ?v_33) ?v_67)) (or (or ?v_43 ?v_85) ?v_122)) (or (or P9 ?v_152) ?v_149)) (or (or ?v_116 ?v_45) ?v_157)) (or (or ?v_158 ?v_159) ?v_77)) (or (or ?v_147 ?v_160) ?v_31)) (or (or ?v_128 ?v_132) ?v_82)) (or (or ?v_68 ?v_103) ?v_35)) (or (or P12 ?v_140) ?v_139)) (or (or ?v_145 ?v_142) P0)) (or (or ?v_80 ?v_71) ?v_161)) (or (or ?v_162 ?v_131) ?v_29)) (or (or ?v_163 P39) P33)) (or (or ?v_13 ?v_29) ?v_22)) (or (or ?v_41 ?v_21) ?v_169)) (or (or ?v_164 ?v_131) ?v_142)) (or (or ?v_12 P4) ?v_98)) (or (or ?v_58 ?v_131) ?v_4)) (or (or P20 ?v_165) P29)) (or (or ?v_156 ?v_62) ?v_31)) (or (or ?v_206 ?v_161) ?v_166)) (or (or P2 ?v_49) ?v_59)) (or (or ?v_33 ?v_166) ?v_133)) (or (or ?v_167 ?v_168) ?v_145)) (or (or ?v_68 P32) ?v_77)) (or (or ?v_81 ?v_177) ?v_105)) (or (or ?v_184 ?v_8) ?v_71)) (or (or P6 ?v_186) ?v_152)) (or (or ?v_171 ?v_160) ?v_172)) (or (or ?v_88 ?v_53) ?v_142)) (or (or ?v_149 ?v_49) ?v_17)) (or (or P22 ?v_34) P36)) (or (or P14 ?v_173) ?v_88)) (or (or ?v_101 ?v_154) ?v_84)) (or (or ?v_143 ?v_96) ?v_66)) (or (or ?v_42 ?v_49) ?v_15)) (or (or ?v_174 ?v_159) ?v_160)) (or (or ?v_122 ?v_46) ?v_29)) (or (or ?v_80 P6) ?v_132)) (or (or P3 P37) ?v_194)) (or (or ?v_80 ?v_57) ?v_41)) (or (or P32 P5) ?v_31)) (or (or P10 ?v_14) ?v_26)) (or (or ?v_29 ?v_164) ?v_72)) (or (or ?v_121 P14) P4)) (or (or ?v_79 ?v_44) ?v_89)) (or (or ?v_114 ?v_164) P24)) (or (or ?v_58 ?v_119) P1)) (or (or ?v_117 ?v_59) ?v_132)) (or (or P3 P32) ?v_91)) (or (or ?v_74 P11) ?v_44)) (or (or ?v_164 P32) ?v_118)) (or (or ?v_175 ?v_67) ?v_176)) (or (or P21 ?v_178) ?v_10)) (or (or ?v_18 ?v_53) ?v_113)) (or (or ?v_8 ?v_12) ?v_177)) (or (or P17 ?v_178) P26)) (or (or ?v_53 ?v_179) ?v_180)) (or (or ?v_27 ?v_6) ?v_157)) (or (or ?v_181 ?v_88) P34)) (or (or ?v_103 ?v_164) ?v_146)) (or (or ?v_134 ?v_180) ?v_15)) (or (or ?v_33 ?v_176) ?v_152)) (or (or ?v_20 P8) ?v_88)) (or (or ?v_141 ?v_110) ?v_120)) (or (or P8 ?v_69) P36)) (or (or ?v_90 ?v_64) ?v_112)) (or (or ?v_33 P3) ?v_27)) (or (or ?v_73 ?v_42) ?v_48)) (or (or ?v_96 ?v_29) P0)) (or (or P22 ?v_46) P16)) (or (or ?v_54 ?v_94) ?v_49)) (or (or ?v_125 P14) ?v_170)) (or (or ?v_150 ?v_147) P28)) (or (or ?v_46 ?v_86) ?v_156)) (or (or ?v_68 ?v_76) ?v_0)) (or (or ?v_182 P10) ?v_202)) (or (or ?v_183 P7) ?v_20)) (or (or ?v_99 P4) ?v_184)) (or (or ?v_185 ?v_131) ?v_177)) (or (or ?v_165 ?v_125) ?v_120)) (or (or ?v_146 ?v_159) P23)) (or (or ?v_48 ?v_97) ?v_105)) (or (or ?v_94 ?v_40) ?v_148)) (or (or ?v_42 ?v_176) ?v_164)) (or (or ?v_48 ?v_138) P39)) (or (or ?v_0 ?v_90) ?v_191)) (or (or ?v_186 ?v_123) ?v_164)) (or (or P38 ?v_162) ?v_138)) (or (or ?v_142 P21) ?v_186)) (or (or ?v_97 P20) P36)) (or (or ?v_117 ?v_141) ?v_80)) (or (or ?v_58 P2) ?v_30)) (or (or P10 ?v_25) ?v_161)) (or (or ?v_187 ?v_12) ?v_123)) (or (or ?v_174 ?v_91) P6)) (or (or ?v_181 ?v_159) ?v_5)) (or (or ?v_21 ?v_48) ?v_114)) (or (or ?v_176 ?v_133) ?v_30)) (or (or ?v_158 P7) ?v_150)) (or (or P0 ?v_41) ?v_14)) (or (or ?v_61 ?v_124) ?v_74)) (or (or ?v_80 ?v_73) ?v_188)) (or (or ?v_69 ?v_55) ?v_87)) (or (or ?v_114 P7) ?v_58)) (or (or ?v_35 ?v_139) ?v_133)) (or (or P24 ?v_4) P13)) (or (or ?v_158 ?v_118) ?v_98)) (or (or ?v_0 ?v_67) ?v_47)) (or (or ?v_15 ?v_10) ?v_0)) (or (or ?v_177 ?v_101) P24)) (or (or ?v_188 ?v_69) ?v_96)) (or (or ?v_185 ?v_88) ?v_115)) (or (or ?v_39 ?v_10) ?v_34)) (or (or ?v_21 ?v_153) ?v_6)) (or (or ?v_45 ?v_189) ?v_135)) (or (or ?v_64 ?v_41) P15)) (or (or ?v_55 ?v_84) ?v_190)) (or (or ?v_145 P23) ?v_120)) (or (or ?v_120 ?v_33) ?v_77)) (or (or ?v_93 ?v_190) ?v_10)) (or (or ?v_66 ?v_42) P27)) (or (or P18 P16) ?v_71)) (or (or P33 ?v_68) ?v_103)) (or (or ?v_158 ?v_35) ?v_34)) (or (or ?v_65 ?v_96) ?v_28)) (or (or P27 ?v_176) ?v_148)) (or (or ?v_69 ?v_179) P2)) (or (or ?v_129 P33) ?v_71)) (or (or P12 ?v_185) ?v_191)) (or (or ?v_62 P9) ?v_155)) (or (or ?v_182 ?v_36) ?v_12)) (or (or ?v_27 ?v_57) ?v_25)) (or (or ?v_123 ?v_185) ?v_57)) (or (or ?v_39 ?v_98) ?v_47)) (or (or P22 P1) ?v_75)) (or (or P31 P24) P19)) (or (or ?v_33 ?v_34) P34)) (or (or ?v_90 ?v_192) ?v_164)) (or (or ?v_51 ?v_49) ?v_15)) (or (or ?v_174 ?v_112) ?v_157)) (or (or ?v_112 ?v_49) P0)) (or (or ?v_125 ?v_66) P13)) (or (or P13 ?v_140) ?v_136)) (or (or ?v_157 ?v_143) ?v_159)) (or (or ?v_64 ?v_25) ?v_105)) (or (or ?v_52 ?v_65) ?v_159)) (or (or ?v_42 ?v_193) ?v_118)) (or (or ?v_70 ?v_36) ?v_106)) (or (or ?v_43 ?v_139) ?v_26)) (or (or P8 ?v_84) ?v_188)) (or (or ?v_127 ?v_44) ?v_17)) (or (or ?v_105 ?v_181) ?v_41)) (or (or ?v_154 ?v_59) P18)) (or (or ?v_186 ?v_70) ?v_180)) (or (or ?v_36 ?v_134) ?v_197)) (or (or P6 ?v_141) ?v_146)) (or (or ?v_109 ?v_100) ?v_86)) (or (or ?v_47 P4) ?v_42)) (or (or P28 ?v_138) ?v_166)) (or (or ?v_28 ?v_51) ?v_194)) (or (or ?v_183 ?v_131) ?v_124)) (or (or ?v_140 ?v_121) ?v_196)) (or (or ?v_29 ?v_192) ?v_44)) (or (or P23 ?v_187) ?v_105)) (or (or ?v_102 ?v_61) ?v_103)) (or (or ?v_44 P16) ?v_195)) (or (or ?v_127 ?v_95) P5)) (or (or ?v_128 P3) P7)) (or (or ?v_194 ?v_7) ?v_139)) (or (or ?v_132 ?v_55) ?v_112)) (or (or ?v_45 ?v_144) P28)) (or (or ?v_205 P12) ?v_163)) (or (or ?v_126 ?v_143) ?v_49)) (or (or ?v_25 ?v_109) P23)) (or (or ?v_76 ?v_4) ?v_93)) (or (or ?v_51 ?v_125) ?v_190)) (or (or ?v_33 P13) ?v_126)) (or (or ?v_90 ?v_186) ?v_53)) (or (or ?v_113 ?v_126) P38)) (or (or P9 P37) ?v_99)) (or (or ?v_196 ?v_114) ?v_112)) (or (or ?v_36 P26) ?v_107)) (or (or ?v_15 ?v_189) ?v_105)) (or (or ?v_136 ?v_193) ?v_127)) (or (or ?v_104 ?v_138) P21)) (or (or (not P0) ?v_70) ?v_27)) (or (or P32 P7) ?v_19)) (or (or P14 ?v_187) ?v_103)) (or (or P5 ?v_22) ?v_136)) (or (or ?v_197 ?v_160) ?v_80)) (or (or ?v_67 P1) P9)) (or (or ?v_196 P30) ?v_162)) (or (or ?v_179 ?v_85) ?v_51)) (or ?v_203 P3)) (or (or ?v_89 ?v_138) ?v_7)) (or (or ?v_90 P17) ?v_54)) (or (or ?v_11 P12) P17)) (or (or ?v_144 ?v_36) ?v_200)) (or (or P2 ?v_105) ?v_165)) (or (or ?v_88 ?v_177) ?v_42)) (or (or ?v_10 ?v_69) ?v_60)) (or (or P3 ?v_39) ?v_198)) (or (or ?v_94 ?v_188) ?v_28)) (or (or ?v_73 P21) ?v_109)) (or (or ?v_43 ?v_153) ?v_199)) (or (or P6 ?v_94) ?v_6)) (or (or ?v_61 ?v_97) ?v_189)) (or (or ?v_83 ?v_129) ?v_48)) (or (or ?v_20 ?v_123) ?v_79)) (or (or ?v_28 ?v_61) ?v_66)) (or (or ?v_98 ?v_117) ?v_40)) (or (or ?v_98 ?v_179) ?v_49)) (or (or ?v_149 P20) ?v_84)) (or (or ?v_59 P39) ?v_5)) (or (or ?v_136 ?v_132) P27)) (or (or ?v_57 P22) ?v_130)) (or (or P22 ?v_57) P9)) (or (or ?v_128 ?v_0) ?v_84)) (or (or ?v_123 ?v_36) ?v_198)) (or (or ?v_200 ?v_85) ?v_55)) (or (or ?v_109 ?v_87) ?v_140)) (or (or ?v_12 ?v_21) ?v_37)) (or (or ?v_147 P23) ?v_181)) (or (or ?v_107 ?v_111) ?v_178)) (or (or ?v_201 ?v_124) ?v_161)) (or (or ?v_106 ?v_13) ?v_196)) (or (or ?v_7 ?v_57) ?v_123)) (or (or ?v_11 P22) ?v_151)) (or (or ?v_174 ?v_191) ?v_20)) (or (or ?v_12 P8) ?v_36)) (or (or ?v_139 ?v_79) ?v_25)) (or (or ?v_129 P29) ?v_85)) (or (or P17 ?v_122) ?v_119)) (or (or ?v_112 ?v_31) ?v_36)) (or (or ?v_98 P25) ?v_19)) (or (or ?v_160 ?v_75) ?v_70)) (or (or ?v_80 ?v_35) ?v_168)) (or (or P9 ?v_6) ?v_199)) (or (or ?v_90 ?v_33) ?v_11)) (or (or ?v_117 ?v_76) ?v_198)) (or (or ?v_106 ?v_159) ?v_83)) (or (or ?v_79 P1) ?v_111)) (or (or ?v_82 ?v_66) P20)) (or (or ?v_152 ?v_136) ?v_5)) (or (or P14 P38) P25)) (or (or ?v_33 ?v_200) P27)) (or (or ?v_201 ?v_200) ?v_80)) (or (or ?v_171 ?v_41) P19)) (or (or P38 ?v_22) ?v_27)) (or (or ?v_8 ?v_142) ?v_121)) (or (or ?v_119 ?v_202) ?v_179)) (or (or ?v_73 ?v_41) P24)) (or (or P11 ?v_168) ?v_88)) (or (or ?v_120 ?v_188) ?v_99)) (or (or ?v_193 ?v_44) ?v_198)) (or (or P19 ?v_99) ?v_101)) (or (or ?v_106 ?v_197) ?v_33)) (or (or P0 ?v_14) P35)) (or (or ?v_53 P25) ?v_117)) (or (or P18 P29) ?v_167)) (or (or ?v_194 ?v_185) ?v_70)) (or (or ?v_70 ?v_83) P2)) (or (or ?v_0 ?v_176) ?v_75)) (or (or P18 ?v_71) ?v_10)) (or (or ?v_104 ?v_22) ?v_55)) (or (or ?v_14 ?v_128) ?v_7)) (or (or P38 P27) ?v_4)) (or (or ?v_37 ?v_74) P37)) (or (or ?v_44 ?v_166) P1)) (or ?v_203 ?v_183)) (or (or ?v_165 ?v_73) ?v_117)) (or (or P0 ?v_9) ?v_60)) (or (or ?v_11 ?v_159) P17)) (or (or ?v_120 ?v_127) ?v_97)) (or (or ?v_52 ?v_159) ?v_154)) (or (or P26 ?v_161) ?v_87)) (or (or ?v_41 ?v_135) P37)) (or (or ?v_52 ?v_22) ?v_186)) (or (or ?v_124 ?v_146) P2)) (or (or ?v_146 ?v_103) ?v_158)) (or (or ?v_131 ?v_196) ?v_111)) (or (or ?v_137 ?v_80) (not ?v_71))) (or (or ?v_190 ?v_196) ?v_73)) (or (or ?v_0 ?v_187) ?v_204)) (or (or ?v_130 P28) ?v_43)) (or (or ?v_205 ?v_187) ?v_129)) (or (or ?v_19 P35) ?v_14)) (or (or ?v_82 ?v_170) ?v_107)) (or (or ?v_88 ?v_36) ?v_206)) (or (or ?v_33 P12) ?v_35)) (or (or ?v_165 P20) ?v_29)) (or (or ?v_61 ?v_166) ?v_51)) (or (or ?v_150 ?v_39) ?v_75)) (or (or ?v_103 ?v_99) ?v_105)) (or (or ?v_96 ?v_196) ?v_140)) (or (or ?v_9 ?v_134) ?v_25)) (or (or ?v_117 ?v_175) ?v_34)) (or (or P36 P5) P33)) (or (or ?v_138 ?v_146) ?v_199)) (or (or ?v_131 ?v_131) ?v_46)) (or (or ?v_90 ?v_41) ?v_89)) (or (or ?v_54 ?v_42) P1)) (or (or ?v_175 ?v_30) ?v_185)) (or (or ?v_39 ?v_171) ?v_31)) (or (or ?v_126 ?v_26) ?v_179)) (or (or ?v_22 P23) ?v_25)) (or (or ?v_72 ?v_71) ?v_132)))))))))))))))))))))))))))))
(check-sat)
(exit)
